1 1936 8
2 1592 8
4 1466 8
25 1457 8
36 1431 8
75 1428 8
78 1422 8
266 1401 8
359 1370 8



1 1866 8
2 1615 8
3 1512 8
5 1498 8
10 1487 8
11 1479 8
22 1466 8
25 1455 8
55 1452 8
59 1444 8
81 1436 8
93 1435 8
119 1430 8
232 1424 8
291 1423 8
294 1413 8
826 1403 8



1 1912 9
2 1536 8
3 1504 8
12 1495 8
13 1475 8
18 1452 8
26 1433 8
63 1431 8
138 1426 8
252 1424 8
255 1423 8
259 1421 8
297 1417 8
380 1416 8



1 1803 8
2 1582 8
3 1566 8
4 1563 8
5 1534 8
6 1510 8
10 1485 8
15 1472 8
22 1435 8
47 1434 8
48 1414 8
128 1407 8
288 1393 8



1 1740 8
2 1617 8
3 1521 8
6 1486 8
12 1477 8
15 1457 8
48 1451 8
75 1431 8
259 1427 8
304 1416 8
471 1407 8
695 1401 8



